robust/generate/spp_dkp_Lefebvre_et_al_2026/src/shortest_path_8_1.kp
43
222

[0.56 2.94 0.64 1.16 1.58 4.15 3.21 2.61 0.14 3.54 1.91 3.87 1.23 0.27 4.18 1.07 1.95 1.53 0.37 4.07 4.1 4.69 1.86 4.61 2.15 3.23 0.4 4.33 1.44 1.27 0.02 2.62 2.3 3.07 4.72 4.39 4.39 2.53 0.5 0.87 4.6 1.99 4.17 3.24 3.03 1.33]

[58 35 35 51 73 49 30 85 39 82 92 58 4 58 90 76 8 95 57 67 18 96 70 28 55 24 95 11 95 24 3 77 68 51 23 63 96 27 29 62 100 6 42 88 27 25]
